
List of user-set options:

                                    Name   Value                used
                         derivative_test = first-order           yes
                        file_print_level = 5                     yes
                   hessian_approximation = limited-memory        yes
                                  hsllib = /home/ggs24/packages/ThirdParty-HSL/.libs/libcoinhsl.so  yes
                           linear_solver = ma97                  yes
                                max_iter = 1000                  yes
                             output_file = IPOPT.out             yes
                             print_level = 5                     yes
                      print_user_options = yes                   yes
                                      sb = yes                   yes
                                     tol = 1e-12                 yes
This is Ipopt version 3.14.7, running with linear solver ma97.

Starting derivative checker for first derivatives.

* grad_f[          1] = -9.0779530894959260e-10    ~ -2.2204460492503131e-08  [ 2.130e-04]
* jac_g [    4,   20] = -2.1094237467877974e-15 v  ~  7.0118314461984826e-08  [ 7.012e-04]
* jac_g [  118,   20] = -2.1086205831334725e-15 v  ~  7.0118314461984826e-08  [ 7.012e-04]
* jac_g [    5,   21] = -2.1094237467877974e-15 v  ~ -1.2902964444698408e-08  [ 1.290e-04]
* jac_g [  117,   21] =  1.0990683131608809e-04 v  ~  1.0992178776710182e-04  [ 1.361e-04]
* jac_g [    4,   24] = -2.7755575615628914e-15 v  ~  2.7495146438007787e-08  [ 2.750e-04]
* jac_g [  118,   24] = -2.8299907826265024e-15 v  ~  2.7495146438007787e-08  [ 2.750e-04]
* grad_f[         25] =  8.6224349947454715e-06    ~  8.6329499775955009e-06  [ 1.051e-04]
* jac_g [    5,   25] = -2.7755575615628914e-15 v  ~ -4.0914454870120859e-08  [ 4.091e-04]

Derivative checker detected 9 error(s).

Number of nonzeros in equality constraint Jacobian...:      232
Number of nonzeros in inequality constraint Jacobian.:     9686
Number of nonzeros in Lagrangian Hessian.............:        0

Total number of variables............................:       29
                     variables with only lower bounds:        1
                variables with lower and upper bounds:       28
                     variables with only upper bounds:        0
Total number of equality constraints.................:        8
Total number of inequality constraints...............:      334
        inequality constraints with only lower bounds:        0
   inequality constraints with lower and upper bounds:      334
        inequality constraints with only upper bounds:        0

iter    objective    inf_pr   inf_du lg(mu)  ||d||  lg(rg) alpha_du alpha_pr  ls
   0  1.0000000e+00 8.52e-01 9.29e-01   0.0 0.00e+00    -  0.00e+00 0.00e+00   0
   1  9.9722536e-01 7.50e-01 1.99e+02   0.1 3.03e+01    -  8.86e-01 1.02e-01f  1
   2  9.9619142e-01 5.01e-01 2.54e+02   1.4 1.84e+01    -  1.61e-01 2.79e-01H  1
   3  9.9652891e-01 2.60e-01 3.74e+02  -5.3 1.53e+00    -  1.95e-01 4.91e-01h  1
   4  9.9655823e-01 2.22e-01 3.20e+02  -5.4 5.75e-01    -  2.57e-01 1.44e-01h  1
   5  9.9686736e-01 6.01e-03 5.98e+01  -0.3 4.83e-01    -  3.94e-01 9.90e-01f  1
   6  9.9684818e-01 6.15e-05 5.56e-01  -5.7 1.33e-02    -  9.84e-01 9.90e-01h  1
   7  9.9676702e-01 5.71e-07 4.87e-03  -7.4 2.74e-02    -  9.88e-01 9.91e-01h  1
   8  9.9664803e-01 1.72e-10 5.42e-02  -9.4 3.31e-02    -  9.44e-01 1.00e+00h  1
   9  9.9664238e-01 2.89e-15 1.31e-03  -6.0 1.31e-03    -  1.00e+00 1.00e+00h  1
iter    objective    inf_pr   inf_du lg(mu)  ||d||  lg(rg) alpha_du alpha_pr  ls
  10  9.9663673e-01 8.88e-16 1.31e-03  -7.9 1.31e-03    -  1.00e+00 1.00e+00h  1
  11  9.9663105e-01 9.99e-16 1.32e-03 -10.0 1.31e-03    -  1.00e+00 1.00e+00h  1
  12  9.9662536e-01 3.33e-16 1.33e-03 -11.9 1.32e-03    -  1.00e+00 1.00e+00h  1
  13  9.9661965e-01 1.78e-15 1.33e-03 -12.3 1.33e-03    -  1.00e+00 1.00e+00h  1
  14  9.9661392e-01 1.78e-15 1.34e-03 -12.3 1.33e-03    -  1.00e+00 1.00e+00h  1
  15  9.9660817e-01 8.88e-16 1.34e-03 -12.3 1.34e-03    -  1.00e+00 1.00e+00h  1
  16  9.9660239e-01 3.33e-16 1.35e-03 -12.3 1.34e-03    -  1.00e+00 1.00e+00h  1
  17  9.9659658e-01 8.88e-16 1.36e-03 -12.3 1.35e-03    -  1.00e+00 1.00e+00h  1
  18  9.9659075e-01 1.78e-15 1.36e-03 -12.3 1.36e-03    -  1.00e+00 1.00e+00h  1
  19  9.9658492e-01 1.78e-15 1.35e-03 -12.3 1.36e-03    -  1.00e+00 1.00e+00h  1
iter    objective    inf_pr   inf_du lg(mu)  ||d||  lg(rg) alpha_du alpha_pr  ls
  20  9.9642987e-01 1.78e-15 1.47e-03 -11.1 2.36e+00    -  1.00e+00 1.37e-02h  1
  21  9.9642963e-01 1.11e-15 8.07e-02  -9.1 2.52e+00    -  1.00e+00 1.92e-05h  1
  22  9.9351764e-01 4.44e-16 6.66e-02  -9.2 2.06e+00    -  6.54e-02 2.02e-01h  1
  23  9.9353506e-01 1.78e-15 9.48e-01 -11.0 1.46e-01    -  8.07e-04 1.00e+00h  1
  24  9.9099555e-01 1.04e-02 9.03e-01  -7.1 5.42e+00    -  2.43e-03 4.77e-02h  1
  25  9.9097789e-01 1.09e-02 9.03e-01  -7.0 3.94e+01    -  2.30e-02 4.71e-05h  1
  26  9.9037006e-01 1.21e-02 9.03e-01  -6.5 1.13e+02    -  3.32e-04 5.62e-04h  1
  27  9.9027959e-01 1.22e-02 9.02e-01  -6.5 1.02e+02    -  5.65e-05 9.90e-05h  1
  28  9.8958668e-01 1.30e-02 9.02e-01  -8.5 1.43e+02    -  2.40e-04 5.67e-04h  1
  29  9.8957549e-01 1.30e-02 9.02e-01  -6.5 1.96e+02    -  6.74e-04 7.89e-06h  1
iter    objective    inf_pr   inf_du lg(mu)  ||d||  lg(rg) alpha_du alpha_pr  ls
  30  9.8891789e-01 1.41e-02 9.02e-01  -6.4 7.81e+02    -  3.03e-05 1.24e-04h  1
  31  9.8890262e-01 1.41e-02 9.02e-01  -6.4 1.12e+02    -  2.73e-03 2.18e-05h  1
  32  9.8749263e-01 1.93e-02 9.00e-01  -6.3 1.13e+02    -  1.60e-03 1.99e-03h  1
  33  9.8742097e-01 1.93e-02 9.00e-01  -6.3 3.88e+01    -  3.32e-03 3.73e-04h  1
  34  9.8735006e-01 1.93e-02 9.00e-01  -6.5 8.48e+01    -  4.07e-04 1.63e-04h  1
  35  9.8713593e-01 2.27e-02 8.99e-01  -6.4 1.51e+02    -  3.14e-04 2.79e-04h  1
  36  9.8705026e-01 2.28e-02 8.99e-01  -6.8 5.09e+01    -  1.63e-03 3.36e-04h  1
  37  9.8695168e-01 2.28e-02 8.98e-01  -6.1 1.28e+01    -  5.33e-04 1.50e-03h  1
  38  9.8674628e-01 2.27e-02 8.93e-01  -6.2 8.80e+00    -  5.29e-03 4.62e-03h  1
  39  9.8642043e-01 2.29e-02 8.87e-01  -6.3 9.07e+00    -  2.87e-03 7.21e-03h  1
iter    objective    inf_pr   inf_du lg(mu)  ||d||  lg(rg) alpha_du alpha_pr  ls
  40  9.8642090e-01 2.28e-02 1.26e+02  -5.9 6.60e-02    -  1.00e+00 7.13e-03h  1
  41  9.8577348e-01 2.20e-02 3.62e+02  -4.9 1.95e+00    -  2.80e-01 5.64e-02h  1
  42  9.8179841e-01 4.48e-02 3.50e+02  -5.6 1.24e+01    -  1.19e-02 5.13e-02h  1
  43  9.7876467e-01 5.46e-02 3.39e+02  -5.5 1.94e+01    -  4.12e-02 2.89e-02h  1
  44  9.7440606e-01 7.45e-02 2.69e+02  -4.6 1.57e+01    -  3.25e-02 5.86e-02h  1
  45  9.7451279e-01 6.60e-02 5.28e+02  -5.1 7.01e-02    -  9.63e-01 1.16e-01h  1
  46  9.7404978e-01 5.06e-02 3.36e+02 -11.1 5.87e-01    -  3.20e-01 2.43e-01h  1
  47  9.7312869e-01 4.46e-02 2.91e+02  -5.3 2.03e+00    -  1.61e-01 1.36e-01h  1
  48  9.7160304e-01 4.81e-02 2.89e+02 -11.3 1.60e+01    -  1.81e-02 3.02e-02h  1
  49  9.7029380e-01 5.03e-02 2.84e+02  -5.3 3.36e+01    -  1.58e-02 1.50e-02h  1
iter    objective    inf_pr   inf_du lg(mu)  ||d||  lg(rg) alpha_du alpha_pr  ls
  50  9.6885418e-01 5.22e-02 2.71e+02  -5.7 2.77e+01    -  4.08e-02 2.13e-02h  1
  51  9.6858164e-01 5.17e-02 2.57e+02 -11.3 1.14e+01    -  3.32e-02 1.09e-02h  1
  52  9.6788298e-01 4.78e-02 2.38e+02  -5.7 3.39e+00    -  7.79e-02 1.02e-01h  1
  53  9.6771817e-01 4.62e-02 2.08e+02 -11.3 2.42e+00    -  7.88e-02 3.47e-02h  1
  54  9.6732171e-01 1.57e-01 1.96e+02  -5.8 4.26e+00    -  5.17e-02 4.21e-02h  1
  55  9.6731388e-01 1.58e-01 9.34e+01  -7.3 2.92e-01    -  2.52e-01 2.21e-02h  1
  56  9.6738276e-01 1.19e-01 1.30e+02  -7.6 2.47e-01    -  6.97e-02 2.55e-01h  1
  57  9.6743821e-01 7.54e-02 1.06e+02  -6.2 1.69e-01    -  2.79e-01 3.88e-01h  1
  58  9.6744655e-01 4.81e-02 1.01e+02  -6.0 1.29e-01    -  1.35e-01 3.82e-01h  1
  59  9.6744203e-01 4.60e-02 7.46e+01 -11.7 1.53e-01    -  1.46e-01 4.46e-02h  1
iter    objective    inf_pr   inf_du lg(mu)  ||d||  lg(rg) alpha_du alpha_pr  ls
  60  9.6729934e-01 3.72e-02 7.09e+01  -6.5 2.95e-01    -  1.84e-01 3.16e-01h  1
  61  9.6729649e-01 3.66e-02 5.18e+01 -11.8 2.01e-01    -  1.30e-01 1.67e-02h  1
  62  9.6731392e-01 3.02e-02 1.15e+01  -6.6 2.53e-02    -  4.51e-01 1.76e-01h  1
  63  9.6732685e-01 2.28e-02 1.81e+01  -7.6 3.84e-02    -  1.32e-01 2.47e-01h  1
  64  9.6727376e-01 2.35e-02 1.90e+01  -7.6 1.07e+00    -  3.27e-02 5.87e-02h  1
  65  9.6726217e-01 2.32e-02 1.60e+01  -8.3 7.04e-01    -  5.10e-02 1.39e-02h  1
  66  9.6710228e-01 2.97e-02 1.53e+01  -5.9 7.43e+00    -  1.10e-02 1.95e-02h  1
  67  9.6708117e-01 2.94e-02 1.17e+01  -8.3 9.36e-01    -  6.61e-02 1.60e-02h  1
  68  9.6684991e-01 3.55e-02 1.05e+01  -5.1 1.12e+01    -  1.26e-02 1.40e-02h  1
  69  9.6676531e-01 3.35e-02 4.02e+00  -5.4 7.47e-01    -  6.55e-02 1.12e-01h  1
iter    objective    inf_pr   inf_du lg(mu)  ||d||  lg(rg) alpha_du alpha_pr  ls
  70  9.6662028e-01 4.72e-02 3.46e+00  -6.1 2.41e+00    -  8.86e-02 1.15e-01h  1
  71  9.6632952e-01 2.64e-01 2.75e+02  -5.2 1.19e+00    -  8.61e-02 6.13e-01h  1
  72  9.6620738e-01 2.21e-01 2.00e+02  -5.6 5.16e-01    -  3.38e-01 2.25e-01h  1
  73  9.6568337e-01 2.74e-01 1.95e+02  -5.3 6.27e+00    -  3.23e-02 4.37e-02h  1
  74  9.6567742e-01 2.57e-01 1.88e+02  -7.0 1.04e+00    -  1.43e-01 8.89e-02h  1
  75  9.6605540e-01 9.44e-02 2.12e+02  -5.3 3.95e-01    -  3.55e-01 1.00e+00h  1
  76  9.6582245e-01 1.34e-01 2.49e+01  -5.8 5.84e-01    -  5.67e-01 9.18e-01h  1
  77  9.6557493e-01 1.63e-01 2.30e+01  -6.6 1.07e+00    -  3.26e-01 3.65e-01h  1
  78  9.6568713e-01 1.14e-01 3.20e+01  -6.0 4.40e-01    -  1.48e-01 4.98e-01h  1
  79  9.6583761e-01 6.02e-02 1.59e+01  -6.5 1.98e-01    -  8.08e-01 5.30e-01h  1
iter    objective    inf_pr   inf_du lg(mu)  ||d||  lg(rg) alpha_du alpha_pr  ls
  80  9.6584520e-01 5.57e-02 1.56e+01 -12.3 1.76e-01    -  9.38e-02 7.60e-02h  1
  81  9.6589592e-01 3.22e-02 4.51e+00  -6.8 1.79e-01    -  4.00e-01 5.10e-01h  1
  82  9.6589979e-01 2.94e-02 1.62e+01 -12.3 7.66e-02    -  4.41e-01 8.81e-02h  1
  83  9.6588756e-01 3.61e-02 1.59e+01  -6.1 2.96e+00    -  4.93e-02 5.90e-02h  1
  84  9.6591905e-01 2.48e-02 1.15e+01  -6.8 2.79e-01    -  6.11e-01 3.57e-01h  1
  85  9.6591924e-01 2.27e-02 1.41e+01 -12.3 1.81e-01    -  2.78e-01 8.79e-02h  1
  86  9.6592463e-01 1.90e-02 1.45e+01  -7.0 2.96e-01    -  9.27e-01 2.09e-01h  1
  87  9.6595519e-01 3.04e-03 2.21e+01  -6.4 5.04e-02    -  3.18e-01 1.00e+00h  1
  88  9.6596946e-01 1.84e-03 6.72e-04  -6.4 6.75e-02    -  1.00e+00 1.00e+00h  1
  89  9.6593390e-01 3.03e-03 4.19e-04  -6.6 6.07e-02    -  1.00e+00 1.00e+00h  1
iter    objective    inf_pr   inf_du lg(mu)  ||d||  lg(rg) alpha_du alpha_pr  ls
  90  9.6597469e-01 4.87e-13 3.26e+01  -6.1 1.04e-01    -  4.76e-01 1.00e+00H  1
  91  9.6593560e-01 1.06e-03 9.17e-01  -6.0 4.11e-02    -  1.00e+00 9.28e-01h  1
  92  9.6589579e-01 2.14e-03 1.17e+01  -6.5 7.66e-02    -  9.89e-01 8.14e-01h  1
  93  9.6589308e-01 1.16e-02 5.11e+00  -6.9 1.53e-01    -  5.14e-01 8.42e-01h  1
  94  9.6589176e-01 1.16e-02 4.52e+00  -6.8 9.53e-01    -  1.27e-01 2.24e-02h  2
  95  9.6592589e-01 1.07e-03 7.40e-04  -6.8 6.13e-02    -  1.00e+00 1.00e+00h  1
  96  9.6590315e-01 1.15e-03 3.13e+00  -6.3 6.35e-02    -  9.13e-01 1.00e+00h  1
  97  9.6588092e-01 3.89e-04 6.46e+00 -12.3 3.29e-02    -  8.57e-01 9.87e-01h  1
  98  9.6587659e-01 4.57e-04 8.68e-01  -7.9 5.37e-02    -  9.11e-01 3.35e-01h  1
  99  9.6587250e-01 5.15e-04 3.27e-01  -7.8 4.60e-02    -  2.41e-01 7.64e-01h  1
iter    objective    inf_pr   inf_du lg(mu)  ||d||  lg(rg) alpha_du alpha_pr  ls
 100  9.6588046e-01 2.60e-04 2.91e-04  -7.4 3.05e-02    -  1.00e+00 1.00e+00h  1
 101  9.6587134e-01 1.53e-04 1.42e-04  -7.4 2.24e-02    -  9.10e-01 9.01e-01h  1
 102  9.6587037e-01 1.05e-04 2.20e-04  -7.0 2.15e-02    -  1.00e+00 1.00e+00h  1
 103  9.6586775e-01 2.37e-05 8.84e-01  -7.4 6.87e-03    -  8.27e-01 1.00e+00h  1
 104  9.6587224e-01 1.30e-14 3.38e-04  -7.1 3.82e-02    -  1.00e+00 1.00e+00H  1
 105  9.6586389e-01 2.21e-04 1.79e-01  -7.4 2.05e-02    -  1.00e+00 9.62e-01h  1
 106  9.6586355e-01 2.55e-05 1.00e-04  -7.9 6.19e-03    -  1.00e+00 1.00e+00h  1
 107  9.6586217e-01 3.39e-05 7.48e-05  -8.2 9.10e-03    -  1.00e+00 1.00e+00h  1
 108  9.6586385e-01 1.84e-05 2.08e-04  -7.6 8.84e-03    -  1.00e+00 1.00e+00h  1
 109  9.6586187e-01 1.39e-05 8.54e-05  -8.2 6.12e-03    -  1.00e+00 1.00e+00h  1
iter    objective    inf_pr   inf_du lg(mu)  ||d||  lg(rg) alpha_du alpha_pr  ls
 110  9.6586225e-01 1.02e-05 7.93e-05  -8.7 6.62e-03    -  1.00e+00 1.00e+00h  1
 111  9.6586181e-01 4.56e-06 6.39e-05  -8.4 3.44e-03    -  1.00e+00 1.00e+00h  1
 112  9.6586266e-01 1.67e-15 1.90e-04  -7.9 1.05e-02    -  1.00e+00 1.00e+00H  1
 113  9.6586130e-01 1.12e-05 8.23e-05  -8.4 6.16e-03    -  1.00e+00 1.00e+00h  1
 114  9.6586188e-01 8.21e-06 1.45e-04  -9.9 7.86e-03    -  1.00e+00 1.00e+00h  1
 115  9.6586112e-01 2.43e-06 6.81e-05 -10.0 3.63e-03    -  1.00e+00 1.00e+00h  1
 116  9.6586173e-01 6.66e-16 8.01e-05 -10.3 9.61e-03    -  1.00e+00 1.00e+00H  1
 117  9.6586098e-01 5.89e-06 8.92e-05 -11.0 5.64e-03    -  1.00e+00 1.00e+00h  1
 118  9.6586398e-01 1.75e-09 1.20e-04 -11.6 2.01e-02    -  1.00e+00 1.00e+00H  1
 119  9.6586174e-01 1.12e-05 1.19e-04 -11.7 7.75e-03    -  2.67e-01 1.00e+00h  1
iter    objective    inf_pr   inf_du lg(mu)  ||d||  lg(rg) alpha_du alpha_pr  ls
 120  9.6586169e-01 4.54e-05 1.74e-04 -11.7 1.80e-02    -  6.61e-01 1.00e+00h  1
 121  9.6586050e-01 1.73e-05 6.34e-05 -11.7 1.07e-02    -  1.00e+00 1.00e+00h  1
 122  9.6586047e-01 2.62e-06 1.11e-04 -12.3 3.46e-03    -  1.00e+00 1.00e+00h  1
 123  9.6586025e-01 1.18e-06 2.93e-05 -12.3 1.80e-03    -  1.00e+00 1.00e+00h  1
 124  9.6586029e-01 1.35e-10 6.24e-05 -12.3 3.30e-03    -  1.00e+00 1.00e+00H  1
 125  9.6586004e-01 9.88e-07 5.79e-05 -12.3 1.85e-03    -  1.00e+00 1.00e+00h  1
 126  9.6586003e-01 6.27e-07 4.75e-05 -12.3 1.29e-03    -  1.00e+00 1.00e+00h  1
 127  9.6585997e-01 4.53e-07 2.71e-05 -12.3 9.17e-04    -  1.00e+00 1.00e+00h  1
 128  9.6585998e-01 3.59e-07 3.41e-05 -12.3 1.01e-03    -  1.00e+00 1.00e+00h  1
 129  9.6585994e-01 1.15e-07 1.05e-05 -12.3 9.07e-04    -  1.00e+00 1.00e+00h  1
iter    objective    inf_pr   inf_du lg(mu)  ||d||  lg(rg) alpha_du alpha_pr  ls
 130  9.6585991e-01 2.23e-07 1.20e-05 -12.3 2.02e-03    -  1.00e+00 1.00e+00h  1
 131  9.6586082e-01 3.33e-16 1.38e-04 -12.3 2.33e-02    -  1.00e+00 1.00e+00H  1
 132  9.6586011e-01 1.15e-05 8.69e-05 -12.3 6.01e-03    -  1.00e+00 1.00e+00h  1
 133  9.6585984e-01 8.50e-06 6.25e-05 -12.3 6.27e-03    -  1.00e+00 1.00e+00h  1
 134  9.6585980e-01 2.39e-06 7.86e-05 -12.3 5.02e-03    -  1.00e+00 1.00e+00h  1
 135  9.6585978e-01 4.14e-06 6.29e-05 -12.3 6.59e-03    -  1.00e+00 1.00e+00h  1
 136  9.6585987e-01 2.67e-06 1.03e-04 -12.3 6.88e-03    -  1.00e+00 1.00e+00h  1
 137  9.6585965e-01 4.34e-06 3.99e-05 -12.3 3.83e-03    -  1.00e+00 1.00e+00h  1
 138  9.6585974e-01 2.11e-06 6.11e-05 -12.3 2.23e-03    -  1.00e+00 1.00e+00h  1
 139  9.6585959e-01 7.43e-07 2.60e-05 -12.3 2.71e-03    -  1.00e+00 1.00e+00h  1
iter    objective    inf_pr   inf_du lg(mu)  ||d||  lg(rg) alpha_du alpha_pr  ls
 140  9.6585959e-01 2.90e-11 4.98e-05 -12.3 6.31e-03    -  1.00e+00 1.00e+00H  1
 141  9.6585972e-01 3.33e-16 4.74e-05 -12.3 1.29e-02    -  1.00e+00 1.00e+00H  1
 142  9.6586008e-01 8.88e-16 6.82e-05 -12.3 1.33e-02    -  1.00e+00 1.00e+00H  1
 143  9.6585969e-01 7.48e-06 5.86e-05 -12.3 1.09e-02    -  7.99e-01 1.00e+00h  1
 144  9.6585961e-01 4.52e-06 8.73e-05 -12.3 3.51e-03    -  1.00e+00 1.00e+00h  1
 145  9.6585944e-01 1.27e-06 1.64e-05 -12.3 4.03e-03    -  1.00e+00 1.00e+00h  1
 146  9.6585947e-01 7.57e-07 6.37e-05 -12.3 6.12e-03    -  1.00e+00 1.00e+00h  1
 147  9.6585992e-01 6.20e-10 1.32e-04 -12.3 1.31e-02    -  1.00e+00 1.00e+00H  1
 148  9.6585947e-01 1.68e-06 4.52e-05 -12.3 2.49e-03    -  1.00e+00 1.00e+00h  1
 149  9.6585941e-01 1.12e-07 1.02e-05 -12.3 2.35e-03    -  1.00e+00 1.00e+00h  1
iter    objective    inf_pr   inf_du lg(mu)  ||d||  lg(rg) alpha_du alpha_pr  ls
 150  9.6585940e-01 2.56e-07 1.92e-05 -12.3 7.62e-04    -  1.00e+00 1.00e+00h  1
 151  9.6585940e-01 3.54e-08 2.57e-06 -12.3 1.78e-04    -  1.00e+00 1.00e+00h  1
 152  9.6585940e-01 1.35e-08 3.79e-06 -12.3 2.85e-04    -  1.00e+00 1.00e+00h  1
 153  9.6585940e-01 8.03e-08 6.34e-06 -12.3 7.02e-04    -  1.00e+00 1.00e+00h  1
 154  9.6585940e-01 8.88e-16 5.08e-06 -12.3 1.40e-03    -  1.00e+00 1.00e+00H  1
 155  9.6585941e-01 8.88e-16 1.07e-05 -12.3 6.69e-04    -  1.00e+00 1.00e+00H  1
 156  9.6585940e-01 3.90e-07 9.89e-06 -12.3 1.03e-03    -  1.00e+00 1.00e+00h  1
 157  9.6585944e-01 2.46e-07 5.16e-05 -12.3 6.97e-04    -  1.00e+00 1.00e+00h  1
 158  9.6585939e-01 2.55e-07 2.53e-06 -12.3 5.97e-04    -  1.00e+00 1.00e+00h  1
 159  9.6585940e-01 5.61e-10 8.58e-07 -12.3 4.03e-05    -  1.00e+00 1.00e+00h  1
iter    objective    inf_pr   inf_du lg(mu)  ||d||  lg(rg) alpha_du alpha_pr  ls
 160  9.6585939e-01 2.50e-09 7.93e-07 -12.3 9.22e-05    -  1.00e+00 1.00e+00h  1
 161  9.6585940e-01 3.89e-16 5.41e-06 -12.3 4.35e-04    -  1.00e+00 1.00e+00H  1
 162  9.6585940e-01 2.41e-08 7.09e-06 -12.3 2.74e-04    -  1.00e+00 1.00e+00h  1
 163  9.6585939e-01 2.42e-08 1.96e-06 -12.3 1.96e-04    -  1.00e+00 1.00e+00h  1
 164  9.6585939e-01 1.65e-09 1.02e-06 -12.3 9.74e-05    -  1.00e+00 1.00e+00h  1
 165  9.6585939e-01 1.28e-09 1.15e-07 -12.3 4.07e-05    -  1.00e+00 1.00e+00h  1
 166  9.6585939e-01 6.66e-16 1.82e-07 -12.3 1.04e-05    -  1.00e+00 1.00e+00h  1
 167  9.6585939e-01 1.78e-15 8.44e-07 -12.3 6.17e-05    -  1.00e+00 1.00e+00H  1
 168  9.6585939e-01 2.52e-10 2.22e-07 -12.3 2.90e-05    -  1.00e+00 1.00e+00h  1
 169  9.6585939e-01 2.97e-12 7.53e-08 -12.3 1.65e-05    -  1.00e+00 1.00e+00h  1
iter    objective    inf_pr   inf_du lg(mu)  ||d||  lg(rg) alpha_du alpha_pr  ls
 170  9.6585939e-01 2.78e-16 8.25e-08 -12.3 6.48e-06    -  1.00e+00 1.00e+00h  1
 171  9.6585939e-01 2.22e-16 4.34e-08 -12.3 4.31e-06    -  1.00e+00 1.00e+00h  1
 172  9.6585939e-01 1.78e-15 7.31e-08 -12.3 5.15e-06    -  1.00e+00 1.00e+00h  1
 173  9.6585939e-01 1.78e-15 2.80e-08 -12.3 4.41e-06    -  1.00e+00 1.00e+00h  1
 174  9.6585939e-01 2.22e-16 1.04e-07 -12.3 6.41e-06    -  1.00e+00 1.00e+00H  1
 175  9.6585939e-01 1.11e-16 8.46e-08 -12.3 5.39e-06    -  1.00e+00 1.00e+00h  1
 176  9.6585939e-01 8.88e-16 1.94e-08 -12.3 4.71e-06    -  1.00e+00 1.00e+00h  1
 177  9.6585939e-01 8.88e-16 1.76e-08 -12.3 1.73e-06    -  1.00e+00 1.00e+00h  1
 178  9.6585939e-01 3.33e-16 1.57e-08 -12.3 2.68e-06    -  1.00e+00 1.00e+00h  1
 179  9.6585939e-01 1.11e-16 1.46e-08 -12.3 5.12e-06    -  1.00e+00 1.00e+00h  1

Number of Iterations....: 179

                                   (scaled)                 (unscaled)
Objective...............:   9.6585939451528513e-01    9.6585939451528513e-01
Dual infeasibility......:   1.4573969209387706e-08    1.4573969209387706e-08
Constraint violation....:   1.1102230246251565e-16    1.1102230246251565e-16
Variable bound violation:   0.0000000000000000e+00    0.0000000000000000e+00
Complementarity.........:   5.0000003623349299e-13    5.0000003623349299e-13
Overall NLP error.......:   1.4573969209387706e-08    1.4573969209387706e-08


Number of objective function evaluations             = 202
Number of objective gradient evaluations             = 180
Number of equality constraint evaluations            = 202
Number of inequality constraint evaluations          = 202
Number of equality constraint Jacobian evaluations   = 180
Number of inequality constraint Jacobian evaluations = 180
Number of Lagrangian Hessian evaluations             = 0
Total seconds in IPOPT                               = 12.332

EXIT: Solved To Acceptable Level.
